! Engineering reference derived from EnergyPlus official 5ZoneAirCooled.idf
! Added insulation is a scenario assumption, not a tested material or construction approval.

Version,
  9.0;

Building,
  Building,
  30.,
  City,
  0.04,
  0.4,
  FullExterior,
  25,
  6;

Timestep,
  4;

SurfaceConvectionAlgorithm:Inside,
  Simple;

SurfaceConvectionAlgorithm:Outside,
  SimpleCombined;

HeatBalanceAlgorithm,
  ConductionTransferFunction;

GlobalGeometryRules,
  UpperLeftCorner,
  CounterClockWise,
  relative;

ScheduleTypeLimits,
  Any Number;

ScheduleTypeLimits,
  Fraction,
  0.0,
  1.0,
  CONTINUOUS;

ScheduleTypeLimits,
  Temperature,
  -60,
  200,
  CONTINUOUS,
  Temperature;

ScheduleTypeLimits,
  Control Type,
  0,
  4,
  DISCRETE;

ScheduleTypeLimits,
  On/Off,
  0,
  1,
  DISCRETE;

ScheduleTypeLimits,
  FlowRate,
  0.0,
  10,
  CONTINUOUS;

RunPeriod,
  ,
  1,
  1,
  ,
  12,
  31,
  ,
  Tuesday,
  Yes,
  Yes,
  No,
  Yes,
  Yes;

SimulationControl,
  Yes,
  Yes,
  Yes,
  No,
  Yes;

Site:GroundTemperature:BuildingSurface,
  20.03,
  20.03,
  20.13,
  20.30,
  20.43,
  20.52,
  20.62,
  20.77,
  20.78,
  20.55,
  20.44,
  20.20;

Material,
  WD10,
  MediumSmooth,
  0.667,
  0.115,
  513,
  1381,
  0.9,
  0.78,
  0.78;

Material,
  RG01,
  Rough,
  1.2700000E-02,
  1.442000,
  881.0000,
  1674.000,
  0.9000000,
  0.6500000,
  0.6500000;

Material,
  BR01,
  VeryRough,
  9.4999997E-03,
  0.1620000,
  1121.000,
  1464.000,
  0.9000000,
  0.7000000,
  0.7000000;

Material,
  IN46,
  VeryRough,
  7.6200001E-02,
  2.3000000E-02,
  24.00000,
  1590.000,
  0.9000000,
  0.5000000,
  0.5000000;

Material,
  WD01,
  MediumSmooth,
  1.9099999E-02,
  0.1150000,
  513.0000,
  1381.000,
  0.9000000,
  0.7800000,
  0.7800000;

Material,
  PW03,
  MediumSmooth,
  1.2700000E-02,
  0.1150000,
  545.0000,
  1213.000,
  0.9000000,
  0.7800000,
  0.7800000;

Material,
  IN02,
  Rough,
  9.0099998E-02,
  4.3000001E-02,
  10.00000,
  837.0000,
  0.9000000,
  0.7500000,
  0.7500000;

Material,
  GP01,
  MediumSmooth,
  1.2700000E-02,
  0.1600000,
  801.0000,
  837.0000,
  0.9000000,
  0.7500000,
  0.7500000;

Material,
  GP02,
  MediumSmooth,
  1.5900001E-02,
  0.1600000,
  801.0000,
  837.0000,
  0.9000000,
  0.7500000,
  0.7500000;

Material,
  CC03,
  MediumRough,
  0.1016000,
  1.310000,
  2243.000,
  837.0000,
  0.9000000,
  0.6500000,
  0.6500000;

Material:NoMass,
  CP01,
  Rough,
  0.3670000,
  0.9000000,
  0.7500000,
  0.7500000;

Material:NoMass,
  MAT-CLNG-1,
  Rough,
  0.652259290,
  0.65,
  0.65,
  0.65;

Material:AirGap,
  AL21,
  0.1570000;

Material:AirGap,
  AL23,
  0.1530000;

Construction,
  ROOF-1,
  RG01,
  BR01,
  IN46,
  WD01;

Construction,
  WALL-1,
  WD01,
  PW03,
  IN02,
  GP01;

Construction,
  CLNG-1,
  MAT-CLNG-1;

Construction,
  FLOOR-SLAB-1,
  CC03;

Construction,
  INT-WALL-1,
  GP02,
  AL21,
  GP02;

WindowMaterial:Gas,
  AIR 13MM,
  Air,
  0.0127;

WindowMaterial:Glazing,
  CLEAR 3MM,
  SpectralAverage,
  ,
  0.003,
  0.837,
  0.075,
  0.075,
  0.898,
  0.081,
  0.081,
  0.0,
  0.84,
  0.84,
  0.9;

WindowMaterial:Glazing,
  GREY 3MM,
  SpectralAverage,
  ,
  0.003,
  0.626,
  0.061,
  0.061,
  0.611,
  0.061,
  0.061,
  0.0,
  0.84,
  0.84,
  0.9;

Construction,
  Dbl Clr 3mm/13mm Air,
  CLEAR 3MM,
  AIR 13MM,
  CLEAR 3MM;

Construction,
  Sgl Grey 3mm,
  GREY 3MM;

Schedule:Compact,
  OCCUPY-1,
  Fraction,
  Through: 12/31,
  For: WeekDays SummerDesignDay CustomDay1 CustomDay2,
  Until: 8:00,
  0.0,
  Until: 11:00,
  1.00,
  Until: 12:00,
  0.80,
  Until: 13:00,
  0.40,
  Until: 14:00,
  0.80,
  Until: 18:00,
  1.00,
  Until: 19:00,
  0.50,
  Until: 24:00,
  0.0,
  For: Weekends WinterDesignDay Holiday,
  Until: 24:00,
  0.0;

Schedule:Compact,
  LIGHTS-1,
  Fraction,
  Through: 12/31,
  For: WeekDays SummerDesignDay CustomDay1 CustomDay2,
  Until: 8:00,
  0.05,
  Until: 9:00,
  0.9,
  Until: 10:00,
  0.95,
  Until: 11:00,
  1.00,
  Until: 12:00,
  0.95,
  Until: 13:00,
  0.8,
  Until: 14:00,
  0.9,
  Until: 18:00,
  1.00,
  Until: 19:00,
  0.60,
  Until: 21:00,
  0.20,
  Until: 24:00,
  0.05,
  For: Weekends WinterDesignDay Holiday,
  Until: 24:00,
  0.05;

Schedule:Compact,
  EQUIP-1,
  Fraction,
  Through: 12/31,
  For: WeekDays SummerDesignDay CustomDay1 CustomDay2,
  Until: 8:00,
  0.02,
  Until: 9:00,
  0.4,
  Until: 14:00,
  0.9,
  Until: 15:00,
  0.8,
  Until: 16:00,
  0.7,
  Until: 18:00,
  0.5,
  Until: 20:00,
  0.3,
  Until: 24:00,
  0.02,
  For: Weekends WinterDesignDay Holiday,
  Until: 24:00,
  0.2;

Schedule:Compact,
  INFIL-SCH,
  Fraction,
  Through: 3/31,
  For: AllDays,
  Until: 24:00,
  1.0,
  Through: 10/31,
  For: AllDays,
  Until: 24:00,
  0.0,
  Through: 12/31,
  For: AllDays,
  Until: 24:00,
  1.0;

Schedule:Compact,
  ActSchd,
  Any Number,
  Through: 12/31,
  For: AllDays,
  Until: 24:00,
  117.239997864;

Schedule:Compact,
  ShadeTransSch,
  Fraction,
  Through: 12/31,
  For: AllDays,
  Until: 24:00,
  0.0;

Zone,
  PLENUM-1,
  0,
  0,
  0,
  0,
  1,
  1,
  0.609600067,
  283.2;

BuildingSurface:Detailed,
  WALL-1PF,
  WALL,
  WALL-1,
  PLENUM-1,
  Outdoors,
  ,
  SunExposed,
  WindExposed,
  0.50000,
  4,
  0.0,
  0.0,
  3.0,
  0.0,
  0.0,
  2.4,
  30.5,
  0.0,
  2.4,
  30.5,
  0.0,
  3.0;

BuildingSurface:Detailed,
  WALL-1PR,
  WALL,
  WALL-1,
  PLENUM-1,
  Outdoors,
  ,
  SunExposed,
  WindExposed,
  0.50000,
  4,
  30.5,
  0.0,
  3.0,
  30.5,
  0.0,
  2.4,
  30.5,
  15.2,
  2.4,
  30.5,
  15.2,
  3.0;

BuildingSurface:Detailed,
  WALL-1PB,
  WALL,
  WALL-1,
  PLENUM-1,
  Outdoors,
  ,
  SunExposed,
  WindExposed,
  0.50000,
  4,
  30.5,
  15.2,
  3.0,
  30.5,
  15.2,
  2.4,
  0.0,
  15.2,
  2.4,
  0.0,
  15.2,
  3.0;

BuildingSurface:Detailed,
  WALL-1PL,
  WALL,
  WALL-1,
  PLENUM-1,
  Outdoors,
  ,
  SunExposed,
  WindExposed,
  0.50000,
  4,
  0.0,
  15.2,
  3.0,
  0.0,
  15.2,
  2.4,
  0.0,
  0.0,
  2.4,
  0.0,
  0.0,
  3.0;

BuildingSurface:Detailed,
  TOP-1,
  ROOF,
  ROOF-1,
  PLENUM-1,
  Outdoors,
  ,
  SunExposed,
  WindExposed,
  0.00000,
  4,
  0.0,
  15.2,
  3.0,
  0.0,
  0.0,
  3.0,
  30.5,
  0.0,
  3.0,
  30.5,
  15.2,
  3.0;

BuildingSurface:Detailed,
  C1-1P,
  FLOOR,
  CLNG-1,
  PLENUM-1,
  Surface,
  C1-1,
  NoSun,
  NoWind,
  0.0,
  4,
  26.8,
  3.7,
  2.4,
  30.5,
  0.0,
  2.4,
  0.0,
  0.0,
  2.4,
  3.7,
  3.7,
  2.4;

BuildingSurface:Detailed,
  C2-1P,
  FLOOR,
  CLNG-1,
  PLENUM-1,
  Surface,
  C2-1,
  NoSun,
  NoWind,
  0.0,
  4,
  26.8,
  11.6,
  2.4,
  30.5,
  15.2,
  2.4,
  30.5,
  0.0,
  2.4,
  26.8,
  3.7,
  2.4;

BuildingSurface:Detailed,
  C3-1P,
  FLOOR,
  CLNG-1,
  PLENUM-1,
  Surface,
  C3-1,
  NoSun,
  NoWind,
  0.0,
  4,
  26.8,
  11.6,
  2.4,
  3.7,
  11.6,
  2.4,
  0.0,
  15.2,
  2.4,
  30.5,
  15.2,
  2.4;

BuildingSurface:Detailed,
  C4-1P,
  FLOOR,
  CLNG-1,
  PLENUM-1,
  Surface,
  C4-1,
  NoSun,
  NoWind,
  0.0,
  4,
  3.7,
  3.7,
  2.4,
  0.0,
  0.0,
  2.4,
  0.0,
  15.2,
  2.4,
  3.7,
  11.6,
  2.4;

BuildingSurface:Detailed,
  C5-1P,
  FLOOR,
  CLNG-1,
  PLENUM-1,
  Surface,
  C5-1,
  NoSun,
  NoWind,
  0.0,
  4,
  26.8,
  11.6,
  2.4,
  26.8,
  3.7,
  2.4,
  3.7,
  3.7,
  2.4,
  3.7,
  11.6,
  2.4;

Zone,
  SPACE1-1,
  0,
  0,
  0,
  0,
  1,
  1,
  2.438400269,
  239.247360229;

ZoneInfiltration:DesignFlowRate,
  SPACE1-1 Infil 1,
  SPACE1-1,
  INFIL-SCH,
  flow/zone,
  0.032,
  ,
  ,
  ,
  0,
  0,
  0.2237,
  0;

People,
  SPACE1-1 People 1,
  SPACE1-1,
  OCCUPY-1,
  people,
  11,
  ,
  ,
  0.3,
  ,
  ActSchd;

Lights,
  SPACE1-1 Lights 1,
  SPACE1-1,
  LIGHTS-1,
  LightingLevel,
  1584,
  ,
  ,
  0.2,
  0.59,
  0.2,
  0,
  GeneralLights;

ElectricEquipment,
  SPACE1-1 ElecEq 1,
  SPACE1-1,
  EQUIP-1,
  EquipmentLevel,
  1056,
  ,
  ,
  0,
  0.3,
  0;

BuildingSurface:Detailed,
  FRONT-1,
  WALL,
  WALL-1,
  SPACE1-1,
  Outdoors,
  ,
  SunExposed,
  WindExposed,
  0.50000,
  4,
  0.0,
  0.0,
  2.4,
  0.0,
  0.0,
  0.0,
  30.5,
  0.0,
  0.0,
  30.5,
  0.0,
  2.4;

FenestrationSurface:Detailed,
  WF-1,
  WINDOW,
  Dbl Clr 3mm/13mm Air,
  FRONT-1,
  ,
  0.50000,
  ,
  1,
  4,
  3.0,
  0.0,
  2.1,
  3.0,
  0.0,
  0.9,
  16.8,
  0.0,
  0.9,
  16.8,
  0.0,
  2.1;

FenestrationSurface:Detailed,
  DF-1,
  GLASSDOOR,
  Sgl Grey 3mm,
  FRONT-1,
  ,
  0.50000,
  ,
  1,
  4,
  21.3,
  0.0,
  2.1,
  21.3,
  0.0,
  0.0,
  23.8,
  0.0,
  0.0,
  23.8,
  0.0,
  2.1;

Shading:Zone:Detailed,
  Main South Overhang,
  FRONT-1,
  ShadeTransSch,
  4,
  0.0,
  -1.3,
  2.2,
  0.0,
  0.0,
  2.2,
  19.8,
  0.0,
  2.2,
  19.8,
  -1.3,
  2.2;

Shading:Zone:Detailed,
  South Door Overhang,
  FRONT-1,
  ShadeTransSch,
  4,
  21.0,
  -2.0,
  2.6,
  21.0,
  0.0,
  2.6,
  24.1,
  0.0,
  2.6,
  24.1,
  -2.0,
  2.6;

BuildingSurface:Detailed,
  C1-1,
  CEILING,
  CLNG-1,
  SPACE1-1,
  Surface,
  C1-1P,
  NoSun,
  NoWind,
  0.0,
  4,
  3.7,
  3.7,
  2.4,
  0.0,
  0.0,
  2.4,
  30.5,
  0.0,
  2.4,
  26.8,
  3.7,
  2.4;

BuildingSurface:Detailed,
  F1-1,
  FLOOR,
  FLOOR-SLAB-1,
  SPACE1-1,
  Ground,
  ,
  NoSun,
  NoWind,
  0.0,
  4,
  26.8,
  3.7,
  0.0,
  30.5,
  0.0,
  0.0,
  0.0,
  0.0,
  0.0,
  3.7,
  3.7,
  0.0;

BuildingSurface:Detailed,
  SB12,
  WALL,
  INT-WALL-1,
  SPACE1-1,
  Surface,
  SB21,
  NoSun,
  NoWind,
  0.0,
  4,
  30.5,
  0.0,
  2.4,
  30.5,
  0.0,
  0.0,
  26.8,
  3.7,
  0.0,
  26.8,
  3.7,
  2.4;

BuildingSurface:Detailed,
  SB14,
  WALL,
  INT-WALL-1,
  SPACE1-1,
  Surface,
  SB41,
  NoSun,
  NoWind,
  0.0,
  4,
  3.7,
  3.7,
  2.4,
  3.7,
  3.7,
  0.0,
  0.0,
  0.0,
  0.0,
  0.0,
  0.0,
  2.4;

BuildingSurface:Detailed,
  SB15,
  WALL,
  INT-WALL-1,
  SPACE1-1,
  Surface,
  SB51,
  NoSun,
  NoWind,
  0.0,
  4,
  26.8,
  3.7,
  2.4,
  26.8,
  3.7,
  0.0,
  3.7,
  3.7,
  0.0,
  3.7,
  3.7,
  2.4;

Zone,
  SPACE2-1,
  0,
  0,
  0,
  0,
  1,
  1,
  2.438400269,
  103.311355591;

ZoneInfiltration:DesignFlowRate,
  SPACE2-1 Infil 1,
  SPACE2-1,
  INFIL-SCH,
  flow/zone,
  0.014,
  ,
  ,
  ,
  0,
  0,
  0.2237,
  0;

People,
  SPACE2-1 People 1,
  SPACE2-1,
  OCCUPY-1,
  people,
  5,
  ,
  ,
  0.3,
  ,
  ActSchd;

Lights,
  SPACE2-1 Lights 1,
  SPACE2-1,
  LIGHTS-1,
  LightingLevel,
  684,
  ,
  ,
  0.2,
  0.59,
  0.2,
  0,
  GeneralLights;

ElectricEquipment,
  SPACE2-1 ElecEq 1,
  SPACE2-1,
  EQUIP-1,
  EquipmentLevel,
  456,
  ,
  ,
  0,
  0.3,
  0;

BuildingSurface:Detailed,
  RIGHT-1,
  WALL,
  WALL-1,
  SPACE2-1,
  Outdoors,
  ,
  SunExposed,
  WindExposed,
  0.50000,
  4,
  30.5,
  0.0,
  2.4,
  30.5,
  0.0,
  0.0,
  30.5,
  15.2,
  0.0,
  30.5,
  15.2,
  2.4;

FenestrationSurface:Detailed,
  WR-1,
  WINDOW,
  Dbl Clr 3mm/13mm Air,
  RIGHT-1,
  ,
  0.50000,
  ,
  1,
  4,
  30.5,
  3.8,
  2.1,
  30.5,
  3.8,
  0.9,
  30.5,
  11.4,
  0.9,
  30.5,
  11.4,
  2.1;

BuildingSurface:Detailed,
  C2-1,
  CEILING,
  CLNG-1,
  SPACE2-1,
  Surface,
  C2-1P,
  NoSun,
  NoWind,
  0.0,
  4,
  26.8,
  3.7,
  2.4,
  30.5,
  0.0,
  2.4,
  30.5,
  15.2,
  2.4,
  26.8,
  11.6,
  2.4;

BuildingSurface:Detailed,
  F2-1,
  FLOOR,
  FLOOR-SLAB-1,
  SPACE2-1,
  Ground,
  ,
  NoSun,
  NoWind,
  0.0,
  4,
  26.8,
  11.6,
  0.0,
  30.5,
  15.2,
  0.0,
  30.5,
  0.0,
  0.0,
  26.8,
  3.7,
  0.0;

BuildingSurface:Detailed,
  SB21,
  WALL,
  INT-WALL-1,
  SPACE2-1,
  Surface,
  SB12,
  NoSun,
  NoWind,
  0.0,
  4,
  26.8,
  3.7,
  2.4,
  26.8,
  3.7,
  0.0,
  30.5,
  0.0,
  0.0,
  30.5,
  0.0,
  2.4;

BuildingSurface:Detailed,
  SB23,
  WALL,
  INT-WALL-1,
  SPACE2-1,
  Surface,
  SB32,
  NoSun,
  NoWind,
  0.0,
  4,
  30.5,
  15.2,
  2.4,
  30.5,
  15.2,
  0.0,
  26.8,
  11.6,
  0.0,
  26.8,
  11.6,
  2.4;

BuildingSurface:Detailed,
  SB25,
  WALL,
  INT-WALL-1,
  SPACE2-1,
  Surface,
  SB52,
  NoSun,
  NoWind,
  0.0,
  4,
  26.8,
  11.6,
  2.4,
  26.8,
  11.6,
  0.0,
  26.8,
  3.7,
  0.0,
  26.8,
  3.7,
  2.4;

Zone,
  SPACE3-1,
  0,
  0,
  0,
  0,
  1,
  1,
  2.438400269,
  239.247360229;

ZoneInfiltration:DesignFlowRate,
  SPACE3-1 Infil 1,
  SPACE3-1,
  INFIL-SCH,
  flow/zone,
  0.032,
  ,
  ,
  ,
  0,
  0,
  0.2237,
  0;

People,
  SPACE3-1 People 1,
  SPACE3-1,
  OCCUPY-1,
  people,
  11,
  ,
  ,
  0.3,
  ,
  ActSchd;

Lights,
  SPACE3-1 Lights 1,
  SPACE3-1,
  LIGHTS-1,
  LightingLevel,
  1584,
  ,
  ,
  0.2,
  0.59,
  0.2,
  0,
  GeneralLights;

ElectricEquipment,
  SPACE3-1 ElecEq 1,
  SPACE3-1,
  EQUIP-1,
  EquipmentLevel,
  1056,
  ,
  ,
  0,
  0.3,
  0;

BuildingSurface:Detailed,
  BACK-1,
  WALL,
  WALL-1,
  SPACE3-1,
  Outdoors,
  ,
  SunExposed,
  WindExposed,
  0.50000,
  4,
  30.5,
  15.2,
  2.4,
  30.5,
  15.2,
  0.0,
  0.0,
  15.2,
  0.0,
  0.0,
  15.2,
  2.4;

FenestrationSurface:Detailed,
  WB-1,
  WINDOW,
  Dbl Clr 3mm/13mm Air,
  BACK-1,
  ,
  0.50000,
  ,
  1,
  4,
  27.4,
  15.2,
  2.1,
  27.4,
  15.2,
  0.9,
  13.7,
  15.2,
  0.9,
  13.7,
  15.2,
  2.1;

FenestrationSurface:Detailed,
  DB-1,
  GLASSDOOR,
  Sgl Grey 3mm,
  BACK-1,
  ,
  0.50000,
  ,
  1,
  4,
  9.1,
  15.2,
  2.1,
  9.1,
  15.2,
  0.0,
  7.0,
  15.2,
  0.0,
  7.0,
  15.2,
  2.1;

BuildingSurface:Detailed,
  C3-1,
  CEILING,
  CLNG-1,
  SPACE3-1,
  Surface,
  C3-1P,
  NoSun,
  NoWind,
  0.0,
  4,
  30.5,
  15.2,
  2.4,
  0.0,
  15.2,
  2.4,
  3.7,
  11.6,
  2.4,
  26.8,
  11.6,
  2.4;

BuildingSurface:Detailed,
  F3-1,
  FLOOR,
  FLOOR-SLAB-1,
  SPACE3-1,
  Ground,
  ,
  NoSun,
  NoWind,
  0.0,
  4,
  26.8,
  11.6,
  0.0,
  3.7,
  11.6,
  0.0,
  0.0,
  15.2,
  0.0,
  30.5,
  15.2,
  0.0;

BuildingSurface:Detailed,
  SB32,
  WALL,
  INT-WALL-1,
  SPACE3-1,
  Surface,
  SB23,
  NoSun,
  NoWind,
  0.0,
  4,
  26.8,
  11.6,
  2.4,
  26.8,
  11.6,
  0.0,
  30.5,
  15.2,
  0.0,
  30.5,
  15.2,
  2.4;

BuildingSurface:Detailed,
  SB34,
  WALL,
  INT-WALL-1,
  SPACE3-1,
  Surface,
  SB43,
  NoSun,
  NoWind,
  0.0,
  4,
  0.0,
  15.2,
  2.4,
  0.0,
  15.2,
  0.0,
  3.7,
  11.6,
  0.0,
  3.7,
  11.6,
  2.4;

BuildingSurface:Detailed,
  SB35,
  WALL,
  INT-WALL-1,
  SPACE3-1,
  Surface,
  SB53,
  NoSun,
  NoWind,
  0.0,
  4,
  3.7,
  11.6,
  2.4,
  3.7,
  11.6,
  0.0,
  26.8,
  11.6,
  0.0,
  26.8,
  11.6,
  2.4;

Zone,
  SPACE4-1,
  0,
  0,
  0,
  0,
  1,
  1,
  2.438400269,
  103.311355591;

ZoneInfiltration:DesignFlowRate,
  SPACE4-1 Infil 1,
  SPACE4-1,
  INFIL-SCH,
  flow/zone,
  0.014,
  ,
  ,
  ,
  0,
  0,
  0.2237,
  0;

People,
  SPACE4-1 People 1,
  SPACE4-1,
  OCCUPY-1,
  people,
  5,
  ,
  ,
  0.3,
  ,
  ActSchd;

Lights,
  SPACE4-1 Lights 1,
  SPACE4-1,
  LIGHTS-1,
  LightingLevel,
  684,
  ,
  ,
  0.2,
  0.59,
  0.2,
  0,
  GeneralLights;

ElectricEquipment,
  SPACE4-1 ElecEq 1,
  SPACE4-1,
  EQUIP-1,
  EquipmentLevel,
  456,
  ,
  ,
  0,
  0.3,
  0;

BuildingSurface:Detailed,
  LEFT-1,
  WALL,
  WALL-1,
  SPACE4-1,
  Outdoors,
  ,
  SunExposed,
  WindExposed,
  0.50000,
  4,
  0.0,
  15.2,
  2.4,
  0.0,
  15.2,
  0.0,
  0.0,
  0.0,
  0.0,
  0.0,
  0.0,
  2.4;

FenestrationSurface:Detailed,
  WL-1,
  WINDOW,
  Dbl Clr 3mm/13mm Air,
  LEFT-1,
  ,
  0.50000,
  ,
  1,
  4,
  0.0,
  11.4,
  2.1,
  0.0,
  11.4,
  0.9,
  0.0,
  3.8,
  0.9,
  0.0,
  3.8,
  2.1;

BuildingSurface:Detailed,
  C4-1,
  CEILING,
  CLNG-1,
  SPACE4-1,
  Surface,
  C4-1P,
  NoSun,
  NoWind,
  0.0,
  4,
  3.7,
  11.6,
  2.4,
  0.0,
  15.2,
  2.4,
  0.0,
  0.0,
  2.4,
  3.7,
  3.7,
  2.4;

BuildingSurface:Detailed,
  F4-1,
  FLOOR,
  FLOOR-SLAB-1,
  SPACE4-1,
  Ground,
  ,
  NoSun,
  NoWind,
  0.0,
  4,
  3.7,
  3.7,
  0.0,
  0.0,
  0.0,
  0.0,
  0.0,
  15.2,
  0.0,
  3.7,
  11.6,
  0.0;

BuildingSurface:Detailed,
  SB41,
  WALL,
  INT-WALL-1,
  SPACE4-1,
  Surface,
  SB14,
  NoSun,
  NoWind,
  0.0,
  4,
  0.0,
  0.0,
  2.4,
  0.0,
  0.0,
  0.0,
  3.7,
  3.7,
  0.0,
  3.7,
  3.7,
  2.4;

BuildingSurface:Detailed,
  SB43,
  WALL,
  INT-WALL-1,
  SPACE4-1,
  Surface,
  SB34,
  NoSun,
  NoWind,
  0.0,
  4,
  3.7,
  11.6,
  2.4,
  3.7,
  11.6,
  0.0,
  0.0,
  15.2,
  0.0,
  0.0,
  15.2,
  2.4;

BuildingSurface:Detailed,
  SB45,
  WALL,
  INT-WALL-1,
  SPACE4-1,
  Surface,
  SB54,
  NoSun,
  NoWind,
  0.0,
  4,
  3.7,
  3.7,
  2.4,
  3.7,
  3.7,
  0.0,
  3.7,
  11.6,
  0.0,
  3.7,
  11.6,
  2.4;

Zone,
  SPACE5-1,
  0,
  0,
  0,
  0,
  1,
  1,
  2.438400269,
  447.682556152;

ZoneInfiltration:DesignFlowRate,
  SPACE5-1 Infil 1,
  SPACE5-1,
  INFIL-SCH,
  flow/zone,
  0.062,
  ,
  ,
  ,
  0,
  0,
  0.2237,
  0;

People,
  SPACE5-1 People 1,
  SPACE5-1,
  OCCUPY-1,
  people,
  20,
  ,
  ,
  0.3,
  ,
  ActSchd;

Lights,
  SPACE5-1 Lights 1,
  SPACE5-1,
  LIGHTS-1,
  LightingLevel,
  2964,
  ,
  ,
  0.2,
  0.59,
  0.2,
  0,
  GeneralLights;

ElectricEquipment,
  SPACE5-1 ElecEq 1,
  SPACE5-1,
  EQUIP-1,
  EquipmentLevel,
  1976,
  ,
  ,
  0,
  0.3,
  0;

BuildingSurface:Detailed,
  C5-1,
  CEILING,
  CLNG-1,
  SPACE5-1,
  Surface,
  C5-1P,
  NoSun,
  NoWind,
  0.0,
  4,
  3.7,
  11.6,
  2.4,
  3.7,
  3.7,
  2.4,
  26.8,
  3.7,
  2.4,
  26.8,
  11.6,
  2.4;

BuildingSurface:Detailed,
  F5-1,
  FLOOR,
  FLOOR-SLAB-1,
  SPACE5-1,
  Ground,
  ,
  NoSun,
  NoWind,
  0.0,
  4,
  26.8,
  11.6,
  0.0,
  26.8,
  3.7,
  0.0,
  3.7,
  3.7,
  0.0,
  3.7,
  11.6,
  0.0;

BuildingSurface:Detailed,
  SB51,
  WALL,
  INT-WALL-1,
  SPACE5-1,
  Surface,
  SB15,
  NoSun,
  NoWind,
  0.0,
  4,
  3.7,
  3.7,
  2.4,
  3.7,
  3.7,
  0.0,
  26.8,
  3.7,
  0.0,
  26.8,
  3.7,
  2.4;

BuildingSurface:Detailed,
  SB52,
  WALL,
  INT-WALL-1,
  SPACE5-1,
  Surface,
  SB25,
  NoSun,
  NoWind,
  0.0,
  4,
  26.8,
  3.7,
  2.4,
  26.8,
  3.7,
  0.0,
  26.8,
  11.6,
  0.0,
  26.8,
  11.6,
  2.4;

BuildingSurface:Detailed,
  SB53,
  WALL,
  INT-WALL-1,
  SPACE5-1,
  Surface,
  SB35,
  NoSun,
  NoWind,
  0.0,
  4,
  26.8,
  11.6,
  2.4,
  26.8,
  11.6,
  0.0,
  3.7,
  11.6,
  0.0,
  3.7,
  11.6,
  2.4;

BuildingSurface:Detailed,
  SB54,
  WALL,
  INT-WALL-1,
  SPACE5-1,
  Surface,
  SB45,
  NoSun,
  NoWind,
  0.0,
  4,
  3.7,
  11.6,
  2.4,
  3.7,
  11.6,
  0.0,
  3.7,
  3.7,
  0.0,
  3.7,
  3.7,
  2.4;

Sizing:Parameters,
  1.0,
  1.0,
  ;

Sizing:Zone,
  SPACE1-1,
  SupplyAirTemperature,
  14.,
  ,
  SupplyAirTemperature,
  50.,
  ,
  0.009,
  0.004,
  SZ DSOA SPACE1-1,
  0.0,
  0.0,
  DesignDayWithLimit,
  ,
  ,
  ,
  ,
  DesignDay,
  ,
  ,
  ,
  ;

DesignSpecification:OutdoorAir,
  SZ DSOA SPACE1-1,
  sum,
  0.00236,
  0.000305,
  0.0;

Sizing:Zone,
  SPACE2-1,
  SupplyAirTemperature,
  14.,
  ,
  SupplyAirTemperature,
  50.,
  ,
  0.009,
  0.004,
  SZ DSOA SPACE2-1,
  0.0,
  0.0,
  DesignDayWithLimit,
  ,
  ,
  ,
  ,
  DesignDay,
  ,
  ,
  ,
  ;

DesignSpecification:OutdoorAir,
  SZ DSOA SPACE2-1,
  sum,
  0.00236,
  0.000305,
  0.0;

Sizing:Zone,
  SPACE3-1,
  SupplyAirTemperature,
  14.,
  ,
  SupplyAirTemperature,
  50.,
  ,
  0.009,
  0.004,
  SZ DSOA SPACE3-1,
  0.0,
  0.0,
  DesignDayWithLimit,
  ,
  ,
  ,
  ,
  DesignDay,
  ,
  ,
  ,
  ;

DesignSpecification:OutdoorAir,
  SZ DSOA SPACE3-1,
  sum,
  0.00236,
  0.000305,
  0.0;

Sizing:Zone,
  SPACE4-1,
  SupplyAirTemperature,
  14.,
  ,
  SupplyAirTemperature,
  50.,
  ,
  0.009,
  0.004,
  SZ DSOA SPACE4-1,
  0.0,
  0.0,
  DesignDayWithLimit,
  ,
  ,
  ,
  ,
  DesignDay,
  ,
  ,
  ,
  ;

DesignSpecification:OutdoorAir,
  SZ DSOA SPACE4-1,
  sum,
  0.00236,
  0.000305,
  0.0;

Sizing:Zone,
  SPACE5-1,
  SupplyAirTemperature,
  14.,
  ,
  SupplyAirTemperature,
  50.,
  ,
  0.009,
  0.004,
  SZ DSOA SPACE5-1,
  0.0,
  0.0,
  DesignDayWithLimit,
  ,
  ,
  ,
  ,
  DesignDay,
  ,
  ,
  ,
  ;

DesignSpecification:OutdoorAir,
  SZ DSOA SPACE5-1,
  sum,
  0.00236,
  0.000305,
  0.0;

Sizing:System,
  VAV Sys 1,
  sensible,
  autosize,
  0.3,
  4.5,
  0.008,
  11.0,
  0.008,
  12.8,
  16.7,
  noncoincident,
  no,
  no,
  0.008,
  0.008,
  DesignDay,
  0,
  ,
  ,
  ,
  DesignDay,
  0,
  ,
  ,
  ,
  ,
  ,
  1.0,
  CoolingDesignCapacity,
  autosize,
  ,
  ,
  HeatingDesignCapacity,
  autosize,
  ,
  ,
  VAV;

Sizing:Plant,
  Hot Water Loop,
  heating,
  82.,
  11;

Sizing:Plant,
  Chilled Water Loop,
  cooling,
  7.00,
  4.00;

Schedule:Compact,
  Htg-SetP-Sch,
  Temperature,
  Through: 12/31,
  For: SummerDesignDay,
  Until: 24:00,
  16.7,
  For: WinterDesignDay,
  Until: 24:00,
  22.2,
  For: WeekDays,
  Until: 6:00,
  16.7,
  Until: 20:00,
  22.2,
  Until: 24:00,
  16.7,
  For: WeekEnds Holiday,
  Until: 24:00,
  16.7,
  For: AllOtherDays,
  Until: 24:00,
  16.7;

Schedule:Compact,
  PlenumHtg-SetP-Sch,
  Temperature,
  Through: 12/31,
  For: AllDays,
  Until: 24:00,
  12.8;

Schedule:Compact,
  Clg-SetP-Sch,
  Temperature,
  Through: 12/31,
  For: SummerDesignDay,
  Until: 24:00,
  23.9,
  For: WinterDesignDay,
  Until: 24:00,
  29.4,
  For: WeekDays,
  Until: 6:00,
  29.4,
  Until: 20:00,
  23.9,
  Until: 24:00,
  29.4,
  For: WeekEnds Holiday,
  Until: 24:00,
  29.4,
  For: AllOtherDays,
  Until: 24:00,
  29.4;

Schedule:Compact,
  PlenumClg-SetP-Sch,
  Temperature,
  Through: 12/31,
  For: AllDays,
  Until: 24:00,
  40.0;

Schedule:Compact,
  Zone Control Type Sched,
  Control Type,
  Through: 12/31,
  For: SummerDesignDay,
  Until: 24:00,
  2,
  For: WinterDesignDay,
  Until: 24:00,
  1,
  For: AllOtherDays,
  Until: 24:00,
  4;

Schedule:Compact,
  Min OA Sched,
  Fraction,
  Through: 12/31,
  For: Weekdays,
  Until: 6:00,
  0.02,
  Until: 20:00,
  1.0,
  Until: 24:00,
  0.02,
  For: AllOtherDays,
  Until: 24:00,
  0.02;

Schedule:Compact,
  FanAvailSched,
  Fraction,
  Through: 3/31,
  For: AllDays,
  Until: 24:00,
  1.0,
  Through: 9/30,
  For: WeekDays,
  Until: 6:00,
  0.0,
  Until: 20:00,
  1.0,
  Until: 24:00,
  0.0,
  For: SummerDesignDay WinterDesignDay,
  Until: 24:00,
  1.0,
  For: AllOtherDays,
  Until: 24:00,
  0.0,
  Through: 12/31,
  For: AllDays,
  Until: 24:00,
  1.0;

Schedule:Compact,
  CoolingCoilAvailSched,
  Fraction,
  Through: 12/31,
  For: WeekDays,
  Until: 6:00,
  0.0,
  Until: 20:00,
  1.0,
  Until: 24:00,
  0.0,
  For: SummerDesignDay WinterDesignDay,
  Until: 24:00,
  1.0,
  For: AllOtherDays,
  Until: 24:00,
  0.0;

Schedule:Compact,
  CoolingPumpAvailSched,
  Fraction,
  Through: 12/31,
  For: AllDays,
  Until: 24:00,
  1.0;

Schedule:Compact,
  ReheatCoilAvailSched,
  Fraction,
  Through: 3/31,
  For: AllDays,
  Until: 24:00,
  1.0,
  Through: 9/30,
  For: WeekDays,
  Until: 6:00,
  0.0,
  Until: 20:00,
  1.0,
  Until: 24:00,
  0.0,
  For: SummerDesignDay WinterDesignDay,
  Until: 24:00,
  1.0,
  For: AllOtherDays,
  Until: 24:00,
  0.0,
  Through: 12/31,
  For: AllDays,
  Until: 24:00,
  1.0;

Schedule:Compact,
  CW Loop Temp Schedule,
  Temperature,
  Through: 12/31,
  For: AllDays,
  Until: 24:00,
  7.22;

Schedule:Compact,
  HW Loop Temp Schedule,
  Temperature,
  Through: 12/31,
  For: AllDays,
  Until: 24:00,
  82;

Schedule:Compact,
  PlantOnSched,
  Fraction,
  Through: 12/31,
  For: AllDays,
  Until: 24:00,
  1.0;

Schedule:Compact,
  Seasonal Reset Supply Air Temp Sch,
  Temperature,
  Through: 3/31,
  For: AllDays,
  Until: 24:00,
  16.0,
  Through: 9/30,
  For: AllDays,
  Until: 24:00,
  13.0,
  Through: 12/31,
  For: AllDays,
  Until: 24:00,
  16.0;

Schedule:Compact,
  OA Cooling Supply Air Temp Sch,
  Temperature,
  Through: 12/31,
  For: AllDays,
  Until: 24:00,
  11.5;

Schedule:Compact,
  OA Heating Supply Air Temp Sch,
  Temperature,
  Through: 12/31,
  For: AllDays,
  Until: 24:00,
  4.5;

OutdoorAir:NodeList,
  OutsideAirInletNodes;

NodeList,
  OutsideAirInletNodes,
  Outside Air Inlet Node 1;

ZoneHVAC:EquipmentConnections,
  SPACE1-1,
  SPACE1-1 Eq,
  SPACE1-1 In Node,
  ,
  SPACE1-1 Node,
  SPACE1-1 Out Node;

ZoneHVAC:EquipmentConnections,
  SPACE2-1,
  SPACE2-1 Eq,
  SPACE2-1 In Node,
  ,
  SPACE2-1 Node,
  SPACE2-1 Out Node;

ZoneHVAC:EquipmentConnections,
  SPACE3-1,
  SPACE3-1 Eq,
  SPACE3-1 In Node,
  ,
  SPACE3-1 Node,
  SPACE3-1 Out Node;

ZoneHVAC:EquipmentConnections,
  SPACE4-1,
  SPACE4-1 Eq,
  SPACE4-1 In Node,
  ,
  SPACE4-1 Node,
  SPACE4-1 Out Node;

ZoneHVAC:EquipmentConnections,
  SPACE5-1,
  SPACE5-1 Eq,
  SPACE5-1 In Node,
  ,
  SPACE5-1 Node,
  SPACE5-1 Out Node;

ZoneControl:Thermostat,
  SPACE1-1 Control,
  SPACE1-1,
  Zone Control Type Sched,
  ThermostatSetpoint:SingleCooling,
  CoolingSetPoint,
  ThermostatSetpoint:SingleHeating,
  HeatingSetpoint,
  ThermostatSetpoint:DualSetpoint,
  DualSetPoint;

ZoneControl:Thermostat,
  SPACE2-1 Control,
  SPACE2-1,
  Zone Control Type Sched,
  ThermostatSetpoint:SingleCooling,
  CoolingSetPoint,
  ThermostatSetpoint:SingleHeating,
  HeatingSetpoint,
  ThermostatSetpoint:DualSetpoint,
  DualSetPoint;

ZoneControl:Thermostat,
  SPACE3-1 Control,
  SPACE3-1,
  Zone Control Type Sched,
  ThermostatSetpoint:SingleCooling,
  CoolingSetPoint,
  ThermostatSetpoint:SingleHeating,
  HeatingSetpoint,
  ThermostatSetpoint:DualSetpoint,
  DualSetPoint;

ZoneControl:Thermostat,
  SPACE4-1 Control,
  SPACE4-1,
  Zone Control Type Sched,
  ThermostatSetpoint:SingleCooling,
  CoolingSetPoint,
  ThermostatSetpoint:SingleHeating,
  HeatingSetpoint,
  ThermostatSetpoint:DualSetpoint,
  DualSetPoint;

ZoneControl:Thermostat,
  SPACE5-1 Control,
  SPACE5-1,
  Zone Control Type Sched,
  ThermostatSetpoint:SingleCooling,
  CoolingSetPoint,
  ThermostatSetpoint:SingleHeating,
  HeatingSetpoint,
  ThermostatSetpoint:DualSetpoint,
  DualSetPoint;

ThermostatSetpoint:SingleHeating,
  HeatingSetpoint,
  Htg-SetP-Sch;

ThermostatSetpoint:SingleCooling,
  CoolingSetpoint,
  Clg-SetP-Sch;

ThermostatSetpoint:SingleHeating,
  PlenumHeatingSetpoint,
  PlenumHtg-SetP-Sch;

ThermostatSetpoint:SingleCooling,
  PlenumCoolingSetpoint,
  PlenumClg-SetP-Sch;

ThermostatSetpoint:DualSetpoint,
  DualSetPoint,
  Htg-SetP-Sch,
  Clg-SetP-Sch;

ZoneHVAC:EquipmentList,
  SPACE1-1 Eq,
  SequentialLoad,
  ZoneHVAC:AirDistributionUnit,
  SPACE1-1 ATU,
  1,
  1;

ZoneHVAC:EquipmentList,
  SPACE2-1 Eq,
  SequentialLoad,
  ZoneHVAC:AirDistributionUnit,
  SPACE2-1 ATU,
  1,
  1;

ZoneHVAC:EquipmentList,
  SPACE3-1 Eq,
  SequentialLoad,
  ZoneHVAC:AirDistributionUnit,
  SPACE3-1 ATU,
  1,
  1;

ZoneHVAC:EquipmentList,
  SPACE4-1 Eq,
  SequentialLoad,
  ZoneHVAC:AirDistributionUnit,
  SPACE4-1 ATU,
  1,
  1;

ZoneHVAC:EquipmentList,
  SPACE5-1 Eq,
  SequentialLoad,
  ZoneHVAC:AirDistributionUnit,
  SPACE5-1 ATU,
  1,
  1;

ZoneHVAC:AirDistributionUnit,
  SPACE1-1 ATU,
  SPACE1-1 In Node,
  AirTerminal:SingleDuct:VAV:Reheat,
  SPACE1-1 VAV Reheat;

ZoneHVAC:AirDistributionUnit,
  SPACE2-1 ATU,
  SPACE2-1 In Node,
  AirTerminal:SingleDuct:VAV:Reheat,
  SPACE2-1 VAV Reheat;

ZoneHVAC:AirDistributionUnit,
  SPACE3-1 ATU,
  SPACE3-1 In Node,
  AirTerminal:SingleDuct:VAV:Reheat,
  SPACE3-1 VAV Reheat;

ZoneHVAC:AirDistributionUnit,
  SPACE4-1 ATU,
  SPACE4-1 In Node,
  AirTerminal:SingleDuct:VAV:Reheat,
  SPACE4-1 VAV Reheat;

ZoneHVAC:AirDistributionUnit,
  SPACE5-1 ATU,
  SPACE5-1 In Node,
  AirTerminal:SingleDuct:VAV:Reheat,
  SPACE5-1 VAV Reheat;

AirTerminal:SingleDuct:VAV:Reheat,
  SPACE1-1 VAV Reheat,
  ReheatCoilAvailSched,
  SPACE1-1 Zone Coil Air In Node,
  SPACE1-1 ATU In Node,
  autosize,
  Constant,
  0.3,
  ,
  ,
  Coil:Heating:Water,
  SPACE1-1 Zone Coil,
  autosize,
  0.0,
  SPACE1-1 In Node,
  0.001,
  NORMAL,
  AUTOCALCULATE,
  AUTOCALCULATE;

AirTerminal:SingleDuct:VAV:Reheat,
  SPACE2-1 VAV Reheat,
  ReheatCoilAvailSched,
  SPACE2-1 Zone Coil Air In Node,
  SPACE2-1 ATU In Node,
  autosize,
  Constant,
  0.3,
  ,
  ,
  Coil:Heating:Water,
  SPACE2-1 Zone Coil,
  autosize,
  0.0,
  SPACE2-1 In Node,
  0.001,
  NORMAL,
  AUTOCALCULATE,
  AUTOCALCULATE;

AirTerminal:SingleDuct:VAV:Reheat,
  SPACE3-1 VAV Reheat,
  ReheatCoilAvailSched,
  SPACE3-1 Zone Coil Air In Node,
  SPACE3-1 ATU In Node,
  autosize,
  Constant,
  0.3,
  ,
  ,
  Coil:Heating:Water,
  SPACE3-1 Zone Coil,
  autosize,
  0.0,
  SPACE3-1 In Node,
  0.001,
  NORMAL,
  AUTOCALCULATE,
  AUTOCALCULATE;

AirTerminal:SingleDuct:VAV:Reheat,
  SPACE4-1 VAV Reheat,
  ReheatCoilAvailSched,
  SPACE4-1 Zone Coil Air In Node,
  SPACE4-1 ATU In Node,
  autosize,
  Constant,
  0.3,
  ,
  ,
  Coil:Heating:Water,
  SPACE4-1 Zone Coil,
  autosize,
  0.0,
  SPACE4-1 In Node,
  0.001,
  NORMAL,
  AUTOCALCULATE,
  AUTOCALCULATE;

AirTerminal:SingleDuct:VAV:Reheat,
  SPACE5-1 VAV Reheat,
  ReheatCoilAvailSched,
  SPACE5-1 Zone Coil Air In Node,
  SPACE5-1 ATU In Node,
  autosize,
  Constant,
  0.3,
  ,
  ,
  Coil:Heating:Water,
  SPACE5-1 Zone Coil,
  autosize,
  0.0,
  SPACE5-1 In Node,
  0.001,
  NORMAL,
  AUTOCALCULATE,
  AUTOCALCULATE;

Coil:Heating:Water,
  SPACE1-1 Zone Coil,
  ReheatCoilAvailSched,
  autosize,
  autosize,
  SPACE1-1 Zone Coil Water In Node,
  SPACE1-1 Zone Coil Water Out Node,
  SPACE1-1 Zone Coil Air In Node,
  SPACE1-1 In Node,
  UFactorTimesAreaAndDesignWaterFlowRate,
  autosize,
  82.2,
  16.6,
  71.1,
  32.2,
  ,
  11;

Coil:Heating:Water,
  SPACE2-1 Zone Coil,
  ReheatCoilAvailSched,
  autosize,
  autosize,
  SPACE2-1 Zone Coil Water In Node,
  SPACE2-1 Zone Coil Water Out Node,
  SPACE2-1 Zone Coil Air In Node,
  SPACE2-1 In Node,
  UFactorTimesAreaAndDesignWaterFlowRate,
  autosize,
  82.2,
  16.6,
  71.1,
  32.2,
  ,
  11;

Coil:Heating:Water,
  SPACE3-1 Zone Coil,
  ReheatCoilAvailSched,
  autosize,
  autosize,
  SPACE3-1 Zone Coil Water In Node,
  SPACE3-1 Zone Coil Water Out Node,
  SPACE3-1 Zone Coil Air In Node,
  SPACE3-1 In Node,
  UFactorTimesAreaAndDesignWaterFlowRate,
  autosize,
  82.2,
  16.6,
  71.1,
  32.2,
  ,
  11;

Coil:Heating:Water,
  SPACE4-1 Zone Coil,
  ReheatCoilAvailSched,
  autosize,
  autosize,
  SPACE4-1 Zone Coil Water In Node,
  SPACE4-1 Zone Coil Water Out Node,
  SPACE4-1 Zone Coil Air In Node,
  SPACE4-1 In Node,
  UFactorTimesAreaAndDesignWaterFlowRate,
  autosize,
  82.2,
  16.6,
  71.1,
  32.2,
  ,
  11;

Coil:Heating:Water,
  SPACE5-1 Zone Coil,
  ReheatCoilAvailSched,
  autosize,
  autosize,
  SPACE5-1 Zone Coil Water In Node,
  SPACE5-1 Zone Coil Water Out Node,
  SPACE5-1 Zone Coil Air In Node,
  SPACE5-1 In Node,
  UFactorTimesAreaAndDesignWaterFlowRate,
  autosize,
  82.2,
  16.6,
  71.1,
  32.2,
  ,
  11;

AirLoopHVAC:ReturnPath,
  ReturnAirPath1,
  PLENUM-1 Out Node,
  AirLoopHVAC:ReturnPlenum,
  Return-Plenum-1;

AirLoopHVAC:ReturnPlenum,
  Return-Plenum-1,
  PLENUM-1,
  PLENUM-1 Node,
  PLENUM-1 Out Node,
  ,
  SPACE1-1 Out Node,
  SPACE2-1 Out Node,
  SPACE3-1 Out Node,
  SPACE4-1 Out Node,
  SPACE5-1 Out Node;

AirLoopHVAC:SupplyPath,
  Zone Supply Air Path 1,
  Zone Eq In Node,
  AirLoopHVAC:ZoneSplitter,
  Zone Supply Air Splitter 1;

AirLoopHVAC:ZoneSplitter,
  Zone Supply Air Splitter 1,
  Zone Eq In Node,
  SPACE1-1 ATU In Node,
  SPACE2-1 ATU In Node,
  SPACE3-1 ATU In Node,
  SPACE4-1 ATU In Node,
  SPACE5-1 ATU In Node;

AirLoopHVAC,
  VAV Sys 1,
  VAV Sys 1 Controllers,
  VAV Sys 1 Avail List,
  autosize,
  VAV Sys 1 Branches,
  ,
  VAV Sys 1 Inlet Node,
  PLENUM-1 Out Node,
  Zone Eq In Node,
  VAV Sys 1 Outlet Node;

AirLoopHVAC:ControllerList,
  VAV Sys 1 Controllers,
  Controller:WaterCoil,
  Central Cooling Coil Controller 1,
  Controller:WaterCoil,
  Central Heating Coil Controller 1;

AvailabilityManagerAssignmentList,
  VAV Sys 1 Avail List,
  AvailabilityManager:Scheduled,
  VAV Sys 1 Avail;

AvailabilityManager:Scheduled,
  VAV Sys 1 Avail,
  FanAvailSched;

BranchList,
  VAV Sys 1 Branches,
  VAV Sys 1 Main Branch;

Branch,
  VAV Sys 1 Main Branch,
  ,
  AirLoopHVAC:OutdoorAirSystem,
  OA Sys 1,
  VAV Sys 1 Inlet Node,
  Mixed Air Node 1,
  Coil:Cooling:Water,
  Main Cooling Coil 1,
  Mixed Air Node 1,
  Main Cooling Coil 1 Outlet Node,
  Coil:Heating:Water,
  Main Heating Coil 1,
  Main Cooling Coil 1 Outlet Node,
  Main Heating Coil 1 Outlet Node,
  Fan:VariableVolume,
  Supply Fan 1,
  Main Heating Coil 1 Outlet Node,
  VAV Sys 1 Outlet Node;

AirLoopHVAC:OutdoorAirSystem,
  OA Sys 1,
  OA Sys 1 Controllers,
  OA Sys 1 Equipment,
  VAV Sys 1 Avail List;

AirLoopHVAC:ControllerList,
  OA Sys 1 Controllers,
  Controller:OutdoorAir,
  OA Controller 1,
  Controller:WaterCoil,
  OA CC Controller 1,
  Controller:WaterCoil,
  OA HC Controller 1;

AirLoopHVAC:OutdoorAirSystem:EquipmentList,
  OA Sys 1 Equipment,
  Coil:Heating:Water,
  OA Heating Coil 1,
  Coil:Cooling:Water,
  OA Cooling Coil 1,
  OutdoorAir:Mixer,
  OA Mixing Box 1;

Coil:Heating:Water,
  OA Heating Coil 1,
  CoolingCoilAvailSched,
  autosize,
  autosize,
  OA Heating Coil 1 Water Inlet Node,
  OA Heating Coil 1 Water Outlet Node,
  Outside Air Inlet Node 1,
  OA Heating Coil 1 Air Outlet Node,
  UFactorTimesAreaAndDesignWaterFlowRate,
  autosize,
  82.2,
  16.6,
  71.1,
  32.2,
  ,
  11;

Coil:Cooling:Water,
  OA Cooling Coil 1,
  CoolingCoilAvailSched,
  autosize,
  autosize,
  autosize,
  autosize,
  autosize,
  autosize,
  autosize,
  OA Cooling Coil 1 Water Inlet Node,
  OA Cooling Coil 1 Water Outlet Node,
  OA Heating Coil 1 Air Outlet Node,
  OA Mixing Box 1 Inlet Node,
  SimpleAnalysis,
  CrossFlow,
  ,
  4.0;

OutdoorAir:Mixer,
  OA Mixing Box 1,
  Mixed Air Node 1,
  OA Mixing Box 1 Inlet Node,
  Relief Air Outlet Node 1,
  VAV Sys 1 Inlet Node;

Coil:Cooling:Water,
  Main Cooling Coil 1,
  CoolingCoilAvailSched,
  autosize,
  autosize,
  autosize,
  autosize,
  autosize,
  autosize,
  autosize,
  Main Cooling Coil 1 Water Inlet Node,
  Main Cooling Coil 1 Water Outlet Node,
  Mixed Air Node 1,
  Main Cooling Coil 1 Outlet Node,
  SimpleAnalysis,
  CrossFlow,
  ,
  4.0;

Coil:Heating:Water,
  Main Heating Coil 1,
  ReheatCoilAvailSched,
  autosize,
  autosize,
  Main Heating Coil 1 Water Inlet Node,
  Main Heating Coil 1 Water Outlet Node,
  Main Cooling Coil 1 Outlet Node,
  Main Heating Coil 1 Outlet Node,
  UFactorTimesAreaAndDesignWaterFlowRate,
  autosize,
  82.2,
  16.6,
  71.1,
  32.2,
  ,
  11;

Fan:VariableVolume,
  Supply Fan 1,
  FanAvailSched,
  0.7,
  600.0,
  autosize,
  Fraction,
  0.25,
  ,
  0.9,
  1.0,
  0.35071223,
  0.30850535,
  -0.54137364,
  0.87198823,
  0.000,
  Main Heating Coil 1 Outlet Node,
  VAV Sys 1 Outlet Node;

Controller:WaterCoil,
  OA HC Controller 1,
  Temperature,
  Normal,
  FLOW,
  OA Heating Coil 1 Air Outlet Node,
  OA Heating Coil 1 Water Inlet Node,
  0.002,
  autosize,
  0.0;

Controller:WaterCoil,
  OA CC Controller 1,
  Temperature,
  Reverse,
  FLOW,
  OA Mixing Box 1 Inlet Node,
  OA Cooling Coil 1 Water Inlet Node,
  0.002,
  autosize,
  0.0;

Controller:WaterCoil,
  Central Cooling Coil Controller 1,
  Temperature,
  Reverse,
  FLOW,
  Main Cooling Coil 1 Outlet Node,
  Main Cooling Coil 1 Water Inlet Node,
  0.002,
  autosize,
  0.0;

Controller:OutdoorAir,
  OA Controller 1,
  Relief Air Outlet Node 1,
  VAV Sys 1 Inlet Node,
  Mixed Air Node 1,
  Outside Air Inlet Node 1,
  autosize,
  autosize,
  NoEconomizer,
  ModulateFlow,
  19.,
  ,
  ,
  ,
  4.6,
  NoLockout,
  FixedMinimum,
  Min OA Sched;

Controller:WaterCoil,
  Central Heating Coil Controller 1,
  Temperature,
  Normal,
  FLOW,
  Main Heating Coil 1 Outlet Node,
  Main Heating Coil 1 Water Inlet Node,
  0.002,
  autosize,
  0.0;

SetpointManager:Scheduled,
  Supply Air Temp Manager 1,
  Temperature,
  Seasonal Reset Supply Air Temp Sch,
  VAV Sys 1 Outlet Node;

SetpointManager:Scheduled,
  OA Air Temp Manager 1,
  Temperature,
  OA Cooling Supply Air Temp Sch,
  OA Mixing Box 1 Inlet Node;

SetpointManager:Scheduled,
  OA Air Temp Manager 2,
  Temperature,
  OA Heating Supply Air Temp Sch,
  OA Heating Coil 1 Air Outlet Node;

SetpointManager:MixedAir,
  Mixed Air Temp Manager 1,
  Temperature,
  VAV Sys 1 Outlet Node,
  Main Heating Coil 1 Outlet Node,
  VAV Sys 1 Outlet Node,
  Main Branch SetPoint Node List;

NodeList,
  Main Branch SetPoint Node List,
  Mixed Air Node 1,
  Main Cooling Coil 1 Outlet Node,
  Main Heating Coil 1 Outlet Node;

PlantLoop,
  Hot Water Loop,
  Water,
  ,
  Hot Loop Operation,
  HW Supply Outlet Node,
  100,
  10,
  autosize,
  0.0,
  ,
  HW Supply Inlet Node,
  HW Supply Outlet Node,
  Heating Supply Side Branches,
  Heating Supply Side Connectors,
  HW Demand Inlet Node,
  HW Demand Outlet Node,
  Heating Demand Side Branches,
  Heating Demand Side Connectors,
  SequentialLoad;

SetpointManager:Scheduled,
  Hot Water Loop Setpoint Manager,
  Temperature,
  HW Loop Temp Schedule,
  HW Supply Outlet Node;

BranchList,
  Heating Supply Side Branches,
  Heating Supply Inlet Branch,
  Central Boiler Branch,
  Heating Supply Bypass Branch,
  Heating Supply Outlet Branch;

ConnectorList,
  Heating Supply Side Connectors,
  Connector:Splitter,
  Heating Supply Splitter,
  Connector:Mixer,
  Heating Supply Mixer;

Branch,
  Heating Supply Inlet Branch,
  ,
  Pump:VariableSpeed,
  HW Circ Pump,
  HW Supply Inlet Node,
  HW Pump Outlet Node;

Branch,
  Central Boiler Branch,
  ,
  Boiler:HotWater,
  Central Boiler,
  Central Boiler Inlet Node,
  Central Boiler Outlet Node;

Branch,
  Heating Supply Bypass Branch,
  ,
  Pipe:Adiabatic,
  Heating Supply Side Bypass,
  Heating Supply Bypass Inlet Node,
  Heating Supply Bypass Outlet Node;

Pipe:Adiabatic,
  Heating Supply Side Bypass,
  Heating Supply Bypass Inlet Node,
  Heating Supply Bypass Outlet Node;

Branch,
  Heating Supply Outlet Branch,
  ,
  Pipe:Adiabatic,
  Heating Supply Outlet,
  Heating Supply Exit Pipe Inlet Node,
  HW Supply Outlet Node;

Pipe:Adiabatic,
  Heating Supply Outlet,
  Heating Supply Exit Pipe Inlet Node,
  HW Supply Outlet Node;

BranchList,
  Heating Demand Side Branches,
  Heating Demand Inlet Branch,
  SPACE1-1 Reheat Branch,
  SPACE2-1 Reheat Branch,
  SPACE3-1 Reheat Branch,
  SPACE4-1 Reheat Branch,
  SPACE5-1 Reheat Branch,
  OA Heating Coil Branch,
  Main Heating Coil 1 Branch,
  Heating Demand Bypass Branch,
  Heating Demand Outlet Branch;

ConnectorList,
  Heating Demand Side Connectors,
  Connector:Splitter,
  Heating Demand Splitter,
  Connector:Mixer,
  Heating Demand Mixer;

Branch,
  Heating Demand Inlet Branch,
  ,
  Pipe:Adiabatic,
  Heating Demand Inlet Pipe,
  HW Demand Inlet Node,
  HW Demand Entrance Pipe Outlet Node;

Pipe:Adiabatic,
  Heating Demand Inlet Pipe,
  HW Demand Inlet Node,
  HW Demand Entrance Pipe Outlet Node;

Branch,
  Heating Demand Outlet Branch,
  ,
  Pipe:Adiabatic,
  Heating Demand Outlet Pipe,
  HW Demand Exit Pipe Inlet Node,
  HW Demand Outlet Node;

Pipe:Adiabatic,
  Heating Demand Outlet Pipe,
  HW Demand Exit Pipe Inlet Node,
  HW Demand Outlet Node;

Branch,
  SPACE1-1 Reheat Branch,
  ,
  Coil:Heating:Water,
  SPACE1-1 Zone Coil,
  SPACE1-1 Zone Coil Water In Node,
  SPACE1-1 Zone Coil Water Out Node;

Branch,
  SPACE2-1 Reheat Branch,
  ,
  Coil:Heating:Water,
  SPACE2-1 Zone Coil,
  SPACE2-1 Zone Coil Water In Node,
  SPACE2-1 Zone Coil Water Out Node;

Branch,
  SPACE3-1 Reheat Branch,
  ,
  Coil:Heating:Water,
  SPACE3-1 Zone Coil,
  SPACE3-1 Zone Coil Water In Node,
  SPACE3-1 Zone Coil Water Out Node;

Branch,
  SPACE4-1 Reheat Branch,
  ,
  Coil:Heating:Water,
  SPACE4-1 Zone Coil,
  SPACE4-1 Zone Coil Water In Node,
  SPACE4-1 Zone Coil Water Out Node;

Branch,
  SPACE5-1 Reheat Branch,
  ,
  Coil:Heating:Water,
  SPACE5-1 Zone Coil,
  SPACE5-1 Zone Coil Water In Node,
  SPACE5-1 Zone Coil Water Out Node;

Branch,
  OA Heating Coil Branch,
  ,
  Coil:Heating:Water,
  OA Heating Coil 1,
  OA Heating Coil 1 Water Inlet Node,
  OA Heating Coil 1 Water Outlet Node;

Branch,
  Main Heating Coil 1 Branch,
  ,
  Coil:Heating:Water,
  Main Heating Coil 1,
  Main Heating Coil 1 Water Inlet Node,
  Main Heating Coil 1 Water Outlet Node;

Branch,
  Heating Demand Bypass Branch,
  ,
  Pipe:Adiabatic,
  Heating Demand Bypass,
  Heating Demand Bypass Inlet Node,
  Heating Demand Bypass Outlet Node;

Pipe:Adiabatic,
  Heating Demand Bypass,
  Heating Demand Bypass Inlet Node,
  Heating Demand Bypass Outlet Node;

Connector:Splitter,
  Heating Demand Splitter,
  Heating Demand Inlet Branch,
  SPACE1-1 Reheat Branch,
  SPACE2-1 Reheat Branch,
  SPACE3-1 Reheat Branch,
  SPACE4-1 Reheat Branch,
  SPACE5-1 Reheat Branch,
  OA Heating Coil Branch,
  Main Heating Coil 1 Branch,
  Heating Demand Bypass Branch;

Connector:Mixer,
  Heating Demand Mixer,
  Heating Demand Outlet Branch,
  SPACE1-1 Reheat Branch,
  SPACE2-1 Reheat Branch,
  SPACE3-1 Reheat Branch,
  SPACE4-1 Reheat Branch,
  SPACE5-1 Reheat Branch,
  OA Heating Coil Branch,
  Main Heating Coil 1 Branch,
  Heating Demand Bypass Branch;

Connector:Splitter,
  Heating Supply Splitter,
  Heating Supply Inlet Branch,
  Central Boiler Branch,
  Heating Supply Bypass Branch;

Connector:Mixer,
  Heating Supply Mixer,
  Heating Supply Outlet Branch,
  Central Boiler Branch,
  Heating Supply Bypass Branch;

PlantEquipmentOperationSchemes,
  Hot Loop Operation,
  PlantEquipmentOperation:HeatingLoad,
  Central Boiler Only,
  PlantOnSched;

PlantEquipmentOperation:HeatingLoad,
  Central Boiler Only,
  0,
  1000000,
  heating plant;

PlantEquipmentList,
  heating plant,
  Boiler:HotWater,
  Central Boiler;

Boiler:HotWater,
  Central Boiler,
  NaturalGas,
  autosize,
  0.8,
  LeavingBoiler,
  BoilerEfficiency,
  autosize,
  0.0,
  1.2,
  1.0,
  Central Boiler Inlet Node,
  Central Boiler Outlet Node,
  100.,
  LeavingSetpointModulated;

SetpointManager:Scheduled,
  Central Boiler Setpoint Manager,
  Temperature,
  HW Loop Temp Schedule,
  Central Boiler Outlet Node;

Curve:Quadratic,
  BoilerEfficiency,
  1.0,
  0.0,
  0.0,
  0,
  1;

Pump:VariableSpeed,
  HW Circ Pump,
  HW Supply Inlet Node,
  HW Pump Outlet Node,
  autosize,
  179352,
  autosize,
  0.9,
  0.0,
  0,
  1,
  0,
  0,
  0,
  INTERMITTENT;

PlantLoop,
  Chilled Water Loop,
  Water,
  ,
  CW Loop Operation,
  CW Supply Outlet Node,
  98,
  1,
  autosize,
  0.0,
  ,
  CW Supply Inlet Node,
  CW Supply Outlet Node,
  Cooling Supply Side Branches,
  Cooling Supply Side Connectors,
  CW Demand Inlet Node,
  CW Demand Outlet Node,
  Cooling Demand Side Branches,
  Cooling Demand Side Connectors,
  SequentialLoad,
  CW Avail List;

AvailabilityManagerAssignmentList,
  CW Avail List,
  AvailabilityManager:LowTemperatureTurnOff,
  CW Low Temp Limit;

AvailabilityManager:LowTemperatureTurnOff,
  CW Low Temp Limit,
  Outside Air Inlet Node 1,
  2.0,
  CoolingPumpAvailSched;

SetpointManager:Scheduled,
  Chilled Water Loop Setpoint Manager,
  Temperature,
  CW Loop Temp Schedule,
  CW Supply Outlet Node;

BranchList,
  Cooling Supply Side Branches,
  CW Pump Branch,
  Central Chiller Branch,
  Cooling Supply Bypass Branch,
  Cooling Supply Outlet;

BranchList,
  Cooling Demand Side Branches,
  Cooling Demand Inlet,
  Cooling Coil Branch,
  OA Cooling Coil Branch,
  Cooling Demand Bypass Branch,
  Cooling Demand Outlet;

ConnectorList,
  Cooling Supply Side Connectors,
  Connector:Splitter,
  CW Loop Splitter,
  Connector:Mixer,
  CW Loop Mixer;

ConnectorList,
  Cooling Demand Side Connectors,
  Connector:Splitter,
  CW Demand Splitter,
  Connector:Mixer,
  CW Demand Mixer;

Branch,
  Cooling Demand Inlet,
  ,
  Pipe:Adiabatic,
  Cooling Demand Side Inlet Pipe,
  CW Demand Inlet Node,
  CW Demand Entrance Pipe Outlet Node;

Pipe:Adiabatic,
  Cooling Demand Side Inlet Pipe,
  CW Demand Inlet Node,
  CW Demand Entrance Pipe Outlet Node;

Branch,
  Cooling Coil Branch,
  ,
  Coil:Cooling:Water,
  Main Cooling Coil 1,
  Main Cooling Coil 1 Water Inlet Node,
  Main Cooling Coil 1 Water Outlet Node;

Branch,
  OA Cooling Coil Branch,
  ,
  Coil:Cooling:Water,
  OA Cooling Coil 1,
  OA Cooling Coil 1 Water Inlet Node,
  OA Cooling Coil 1 Water Outlet Node;

Branch,
  Cooling Demand Bypass Branch,
  ,
  Pipe:Adiabatic,
  Cooling Demand Side Bypass,
  CW Demand Bypass Inlet Node,
  CW Demand Bypass Outlet Node;

Pipe:Adiabatic,
  Cooling Demand Side Bypass,
  CW Demand Bypass Inlet Node,
  CW Demand Bypass Outlet Node;

Branch,
  Cooling Demand Outlet,
  ,
  Pipe:Adiabatic,
  CW Demand Side Outlet Pipe,
  CW Demand Exit Pipe Inlet Node,
  CW Demand Outlet Node;

Pipe:Adiabatic,
  CW Demand Side Outlet Pipe,
  CW Demand Exit Pipe Inlet Node,
  CW Demand Outlet Node;

Branch,
  Cooling Supply Outlet,
  ,
  Pipe:Adiabatic,
  Supply Side Outlet Pipe,
  Supply Side Exit Pipe Inlet Node,
  CW Supply Outlet Node;

Pipe:Adiabatic,
  Supply Side Outlet Pipe,
  Supply Side Exit Pipe Inlet Node,
  CW Supply Outlet Node;

Branch,
  CW Pump Branch,
  ,
  Pump:VariableSpeed,
  CW Circ Pump,
  CW Supply Inlet Node,
  CW Pump Outlet Node;

Branch,
  Central Chiller Branch,
  ,
  Chiller:Electric,
  Central Chiller,
  Central Chiller Inlet Node,
  Central Chiller Outlet Node;

Branch,
  Cooling Supply Bypass Branch,
  ,
  Pipe:Adiabatic,
  Supply Side Bypass,
  CW Supply Bypass Inlet Node,
  CW Supply Bypass Outlet Node;

Pipe:Adiabatic,
  Supply Side Bypass,
  CW Supply Bypass Inlet Node,
  CW Supply Bypass Outlet Node;

Connector:Splitter,
  CW Loop Splitter,
  CW Pump Branch,
  Central Chiller Branch,
  Cooling Supply Bypass Branch;

Connector:Mixer,
  CW Loop Mixer,
  Cooling Supply Outlet,
  Central Chiller Branch,
  Cooling Supply Bypass Branch;

Connector:Splitter,
  CW Demand Splitter,
  Cooling Demand Inlet,
  Cooling Coil Branch,
  OA Cooling Coil Branch,
  Cooling Demand Bypass Branch;

Connector:Mixer,
  CW Demand Mixer,
  Cooling Demand Outlet,
  Cooling Coil Branch,
  OA Cooling Coil Branch,
  Cooling Demand Bypass Branch;

PlantEquipmentOperationSchemes,
  CW Loop Operation,
  PlantEquipmentOperation:CoolingLoad,
  Central Chiller Only,
  PlantOnSched;

PlantEquipmentOperation:CoolingLoad,
  Central Chiller Only,
  0,
  900000,
  Cooling Plant;

PlantEquipmentList,
  Cooling Plant,
  Chiller:Electric,
  Central Chiller;

Chiller:Electric,
  Central Chiller,
  AirCooled,
  autosize,
  3.2,
  Central Chiller Inlet Node,
  Central Chiller Outlet Node,
  Central Chiller Condenser Inlet Node,
  Central Chiller Condenser Outlet Node,
  0.0,
  1.0,
  0.65,
  35.0,
  2.778,
  6.67,
  autosize,
  autosize,
  0.9949,
  -0.045954,
  -0.0013543,
  2.333,
  -1.975,
  0.6121,
  0.03303,
  0.6852,
  0.2818,
  5,
  LeavingSetpointModulated;

SetpointManager:Scheduled,
  Central Chiller Setpoint Manager,
  Temperature,
  CW Loop Temp Schedule,
  Central Chiller Outlet Node;

OutdoorAir:Node,
  Central Chiller Condenser Inlet Node,
  -1.0;

Pump:VariableSpeed,
  CW Circ Pump,
  CW Supply Inlet Node,
  CW Pump Outlet Node,
  autosize,
  179352,
  autosize,
  0.9,
  0.0,
  0,
  1,
  0,
  0,
  0,
  INTERMITTENT,
  CoolingPumpAvailSched;

Output:Variable,
  *,
  Site Outdoor Air Drybulb Temperature,
  hourly;

Output:Variable,
  *,
  Zone Air Temperature,
  hourly;

Output:Variable,
  *,
  Zone Mean Air Dewpoint Temperature,
  hourly;

Output:Variable,
  *,
  Zone Air System Sensible Cooling Rate,
  hourly;

Output:Variable,
  *,
  Zone Air System Sensible Heating Rate,
  hourly;

Output:Variable,
  OA Mixing Box 1 Inlet Node,
  System Node Temperature,
  hourly;

Output:Variable,
  OA Mixing Box 1 Inlet Node,
  System Node Mass Flow Rate,
  hourly;

Output:Variable,
  OA Mixing Box 1 Inlet Node,
  System Node Setpoint Temperature,
  hourly;

Output:Variable,
  OA Mixing Box 1 Inlet Node,
  System Node Humidity Ratio,
  hourly;

Output:Variable,
  OA Heating Coil 1 Air Outlet Node,
  System Node Temperature,
  hourly;

Output:Variable,
  OA Heating Coil 1 Air Outlet Node,
  System Node Mass Flow Rate,
  hourly;

Output:Variable,
  OA Heating Coil 1 Air Outlet Node,
  System Node Setpoint Temperature,
  hourly;

Output:Variable,
  OA Heating Coil 1 Air Outlet Node,
  System Node Humidity Ratio,
  hourly;

Output:Variable,
  Mixed Air Node 1,
  System Node Temperature,
  hourly;

Output:Variable,
  Mixed Air Node 1,
  System Node Humidity Ratio,
  hourly;

Output:Variable,
  Mixed Air Node 1,
  System Node Dewpoint Temperature,
  hourly;

Output:Variable,
  VAV Sys 1 Outlet Node,
  System Node Temperature,
  hourly;

Output:Variable,
  VAV Sys 1 Outlet Node,
  System Node Mass Flow Rate,
  hourly;

Output:Variable,
  VAV Sys 1 Outlet Node,
  System Node Humidity Ratio,
  hourly;

Output:Variable,
  VAV Sys 1 Outlet Node,
  System Node Setpoint Temperature,
  hourly;

Output:Variable,
  OA Cooling Coil 1 Water Inlet Node,
  System Node Temperature,
  hourly;

Output:Variable,
  OA Cooling Coil 1 Water Inlet Node,
  System Node Mass Flow Rate,
  hourly;

Output:Variable,
  Main Cooling Coil 1 Water Inlet Node,
  System Node Mass Flow Rate,
  hourly;

Output:Variable,
  OA Heating Coil 1 Water Inlet Node,
  System Node Temperature,
  hourly;

Output:Variable,
  OA Heating Coil 1 Water Inlet Node,
  System Node Mass Flow Rate,
  hourly;

Output:Variable,
  Main Heating Coil 1 Water Inlet Node,
  System Node Mass Flow Rate,
  hourly;

Output:Variable,
  *,
  Heating Coil Heating Rate,
  hourly;

Output:Variable,
  *,
  Cooling Coil Total Cooling Rate,
  hourly;

Output:Variable,
  *,
  Cooling Coil Sensible Cooling Rate,
  hourly;

Output:Variable,
  *,
  Plant Supply Side Cooling Demand Rate,
  hourly;

Output:Variable,
  *,
  Plant Supply Side Heating Demand Rate,
  hourly;

Output:Variable,
  *,
  Boiler Gas Rate,
  hourly;

Output:Variable,
  *,
  Boiler Heating Rate,
  hourly;

Output:Variable,
  *,
  Chiller Electric Power,
  hourly;

Output:Variable,
  *,
  Chiller Evaporator Cooling Rate,
  hourly;

Output:Variable,
  *,
  Chiller Evaporator Inlet Temperature,
  hourly;

Output:Variable,
  *,
  Chiller Evaporator Outlet Temperature,
  hourly;

Output:Variable,
  *,
  Chiller Evaporator Mass Flow Rate,
  hourly;

Output:Variable,
  *,
  Chiller Condenser Heat Transfer Rate,
  hourly;

Output:Variable,
  *,
  Pump Mass Flow Rate,
  hourly;

Output:Variable,
  *,
  Pump Outlet Temperature,
  hourly;

Output:VariableDictionary,
  Regular;

Output:Meter:MeterFileOnly,
  Electricity:Facility,
  monthly;

Output:Meter:MeterFileOnly,
  Electricity:Building,
  monthly;

Output:Meter:MeterFileOnly,
  InteriorLights:Electricity,
  monthly;

Output:Meter:MeterFileOnly,
  Electricity:HVAC,
  monthly;

Output:Meter:MeterFileOnly,
  Electricity:Plant,
  monthly;

Output:Meter:MeterFileOnly,
  Gas:Facility,
  monthly;

Output:Meter:MeterFileOnly,
  Gas:Plant,
  monthly;

Output:Meter:MeterFileOnly,
  Electricity:Facility,
  runperiod;

Output:Meter:MeterFileOnly,
  Electricity:Building,
  runperiod;

Output:Meter:MeterFileOnly,
  InteriorLights:Electricity,
  runperiod;

Output:Meter:MeterFileOnly,
  Electricity:HVAC,
  runperiod;

Output:Meter:MeterFileOnly,
  Electricity:Plant,
  runperiod;

Output:Meter:MeterFileOnly,
  Gas:Facility,
  runperiod;

Output:Meter:MeterFileOnly,
  Gas:Plant,
  runperiod;

Output:Meter:MeterFileOnly,
  MyGeneralLights,
  monthly;

Output:Meter:MeterFileOnly,
  MyGeneralLights,
  runperiod;

Output:Meter:MeterFileOnly,
  MyBuildingElectric,
  monthly;

Output:Meter:MeterFileOnly,
  MyBuildingElectric,
  runperiod;

Output:Meter:MeterFileOnly,
  MyBuildingOther,
  monthly;

Output:Meter:MeterFileOnly,
  MyBuildingOther,
  runperiod;

Meter:Custom,
  MyGeneralLights,
  Electricity,
  SPACE1-1 Lights 1,
  Lights Electric Energy,
  SPACE2-1 Lights 1,
  Lights Electric Energy,
  SPACE3-1 Lights 1,
  Lights Electric Energy,
  SPACE4-1 Lights 1,
  Lights Electric Energy,
  SPACE5-1 Lights 1,
  Lights Electric Energy;

Meter:Custom,
  MyBuildingElectric,
  Electricity,
  ,
  Electricity:Building;

Meter:CustomDecrement,
  MyBuildingOther,
  Electricity,
  Electricity:Building,
  ,
  MyGeneralLights;

Output:Surfaces:Drawing,
  VRML;

Output:Surfaces:List,
  Details;

Site:Location,
  Denver Centennial  Golden   N_CO_USA Design_Conditions,
  39.74,
  -105.18,
  -7.00,
  1829.00;

SizingPeriod:DesignDay,
  Denver Centennial  Golden   N Ann Htg 99.6% Condns DB,
  12,
  21,
  WinterDesignDay,
  -18.8,
  0.0,
  DefaultMultipliers,
  ,
  Wetbulb,
  -18.8,
  ,
  ,
  ,
  ,
  81198.,
  3,
  340,
  No,
  No,
  No,
  ASHRAEClearSky,
  ,
  ,
  ,
  ,
  0.00;

SizingPeriod:DesignDay,
  Denver Centennial  Golden   N Ann Clg .4% Condns DB=>MWB,
  7,
  21,
  SummerDesignDay,
  33,
  15.2,
  DefaultMultipliers,
  ,
  Wetbulb,
  15.7,
  ,
  ,
  ,
  ,
  81198.,
  4.9,
  0,
  No,
  No,
  No,
  ASHRAETau,
  ,
  ,
  0.424,
  2.025;

Output:SQLite,
  SimpleAndTabular;

Output:Table:SummaryReports,
  AnnualBuildingUtilityPerformanceSummary;

OutputControl:Table:Style,
  HTML,
  JtoKWH;